TCS_Benchmarks/redos_fix/corpus3_output_distinct_3495_3494_150_0.smt2
(set-logic QF_S)
(declare-const x String)
(assert (str.in.re x (re.inter  (re.++  (re.union   (str.to.re "\u{2f}") (re.union  (re.++  (str.to.re "\u{2f}")    (str.to.re "\u{2f}"))  (re.++  (str.to.re "\u{2f}")   (re.++  (str.to.re "\u{2f}")    (str.to.re "\u{2f}"))))) (re.*  (re.union (re.comp  (re.union  (str.to.re "\u{26}") (re.union (re.union (re.range "\u{09}" "\u{0d}") (re.range "\u{20}" "\u{20}") (re.range "\u{85}" "\u{85}") (re.range "\u{a0}" "\u{a0}")) (re.union  (str.to.re "\u{28}")  (str.to.re "\u{29}"))))) (re.union  (re.++  (str.to.re "\u{26}") (re.++  (str.to.re "\u{61}") (re.++  (str.to.re "\u{6d}") (re.++  (str.to.re "\u{70}")  (str.to.re "\u{3b}")))))  (re.++  (str.to.re "\u{26}") (re.++  (str.to.re "\u{71}") (re.++  (str.to.re "\u{75}") (re.++  (str.to.re "\u{6f}") (re.++  (str.to_re "\u{0A}") (re.++  (str.to.re "\u{74}")  (str.to.re "\u{3b}"))))))))) ))  (re.++  (re.union   (str.to.re "\u{2f}") (re.union  (re.++  (str.to.re "\u{2f}")    (str.to.re "\u{2f}"))  (re.++  (str.to.re "\u{2f}")   (re.++  (str.to.re "\u{2f}")    (str.to.re "\u{2f}"))))) (re.*  (re.union (re.comp  (re.union  (str.to.re "\u{26}") (re.union (re.union (re.range "\u{09}" "\u{0d}") (re.range "\u{20}" "\u{20}") (re.range "\u{85}" "\u{85}") (re.range "\u{a0}" "\u{a0}")) (re.union  (str.to.re "\u{28}")  (str.to.re "\u{29}"))))) (re.union  (re.++  (str.to.re "\u{26}") (re.++  (str.to.re "\u{61}") (re.++  (str.to.re "\u{6d}") (re.++  (str.to.re "\u{70}")  (str.to.re "\u{3b}")))))  (re.++  (str.to.re "\u{26}") (re.++  (str.to.re "\u{71}") (re.++  (str.to.re "\u{75}") (re.++  (str.to.re "\u{6f}") (re.++  (str.to_re "\u{0A}") (re.++  (str.to.re "\u{74}")  (str.to.re "\u{3b}"))))))))) )) )))
(check-sat)
(get-model)