TCS_Benchmarks/redos_fix/corpus3_output_distinct_3495_3494_150_0.txt
(\/{1,3})(([^&\s()]|&amp;|&quo\nt;)*)
(\/{1,3})(([^&\s()]|&amp;|&quo\nt;)*)